\ This file has been generated by DOcplex
\ ENCODING=ISO-8859-1
\Problem name: random_problem.lp

Minimize
 obj: - 228 x0 - 114 x1 - 57 x2 + 104 x3 + 52 x4 + 26 x5 - 176 x6 - 88 x7
      - 44 x8 + 344 x9 + 172 x10 + 86 x11 + [ 2624 x0^2 + 2624 x0*x1
      + 1312 x0*x2 + 6016 x0*x3 + 3008 x0*x4 + 1504 x0*x5 + 2560 x0*x6
      + 1280 x0*x7 + 640 x0*x8 + 3328 x0*x9 + 1664 x0*x10 + 832 x0*x11
      + 656 x1^2 + 656 x1*x2 + 3008 x1*x3 + 1504 x1*x4 + 752 x1*x5 + 1280 x1*x6
      + 640 x1*x7 + 320 x1*x8 + 1664 x1*x9 + 832 x1*x10 + 416 x1*x11 + 164 x2^2
      + 1504 x2*x3 + 752 x2*x4 + 376 x2*x5 + 640 x2*x6 + 320 x2*x7 + 160 x2*x8
      + 832 x2*x9 + 416 x2*x10 + 208 x2*x11 + 19584 x3^2 + 19584 x3*x4
      + 9792 x3*x5 + 13696 x3*x6 + 6848 x3*x7 + 3424 x3*x8 + 3328 x3*x9
      + 1664 x3*x10 + 832 x3*x11 + 4896 x4^2 + 4896 x4*x5 + 6848 x4*x6
      + 3424 x4*x7 + 1712 x4*x8 + 1664 x4*x9 + 832 x4*x10 + 416 x4*x11
      + 1224 x5^2 + 3424 x5*x6 + 1712 x5*x7 + 856 x5*x8 + 832 x5*x9 + 416 x5*x10
      + 208 x5*x11 + 7552 x6^2 + 7552 x6*x7 + 3776 x6*x8 + 6528 x6*x9
      + 3264 x6*x10 + 1632 x6*x11 + 1888 x7^2 + 1888 x7*x8 + 3264 x7*x9
      + 1632 x7*x10 + 816 x7*x11 + 472 x8^2 + 1632 x8*x9 + 816 x8*x10
      + 408 x8*x11 + 8576 x9^2 + 8576 x9*x10 + 4288 x9*x11 + 2144 x10^2
      + 2144 x10*x11 + 536 x11^2 ]/2
Subject To
 c0: 4 x0 + 2 x1 + x2 + 4 x3 + 2 x4 + x5 + 4 x6 + 2 x7 + x8 + 4 x9 + 2 x10 + x11
      = 7

Bounds
 0 <= x0 <= 1
 0 <= x1 <= 1
 0 <= x2 <= 1
 0 <= x3 <= 1
 0 <= x4 <= 1
 0 <= x5 <= 1
 0 <= x6 <= 1
 0 <= x7 <= 1
 0 <= x8 <= 1
 0 <= x9 <= 1
 0 <= x10 <= 1
 0 <= x11 <= 1

Binaries
 x0 x1 x2 x3 x4 x5 x6 x7 x8 x9 x10 x11
End
